! Testing structure for ATON QRotor
&SYSTEM
  ibrav = 0
  A =    2.84125
  nat = 8
  ntyp = 3
/
CELL_PARAMETERS alat
  1.000000000000000   0.000000000000000   0.000000000000000 
  0.000000000000000   1.000000000000000   0.000000000000000 
  0.000000000000000   0.000000000000000   1.000000000000000 
ATOMIC_SPECIES
   C   12.01060   C.upf
   H    1.00750   H.upf
   N   14.00650   N.upf
ATOMIC_POSITIONS crystal
  N   0.758865000000000   0.489441000000000   0.431544000000000 
  C   0.241135000000000   0.507039000000000   0.469908000000000 
  H   0.118302000000000   0.816058000000000   0.277387000000000 
  H   0.100000000000000   0.183942000000000   0.316806000000000 
  H   0.151386000000000   0.532732000000000   0.842983000000000 
  H   0.835240000000000   0.473603000000000   0.157017000000000 
  H   0.900000000000000   0.782622000000000   0.575847000000000 
  H   0.882402000000000   0.203300000000000   0.604004000000000 
