! From IKUR-MAPI-9 240910a relaxed centered

&CONTROL
  calculation = 'scf'
  prefix = 'MAPbI3'
  outdir = './tmp/'
  pseudo_dir = './pseudodojo-pbesol-paw-stringent/'
  restart_mode = 'from_scratch'
  max_seconds = 21000
  etot_conv_thr = 3.5279349288639156d-12
  forc_conv_thr = 3.889380759660317d-07
  tprnfor = .true.
  tstress = .true.
  nstep = 999
/

&SYSTEM
  ecutwfc = 66.14877991619842
  ibrav = 0
  A =    8.74886
  nat = 48
  ntyp = 5
  input_dft = 'PBEsol'
  vdw_corr = 'DFT-D3'
  dftd3_version = 4
  dftd3_threebody = .true.
  occupations = 'fixed'
/

&ELECTRONS
  adaptive_thr = .true.
  conv_thr = 3.5279349288639156d-12
  diagonalization = 'ppcg'
  mixing_beta = 0.3
  electron_maxstep = 999
/

&IONS
  ion_dynamics = 'bfgs'
  trust_radius_min = 1.8897261259077822d-06
  upscale = 10000
/

&CELL
  cell_dynamics = 'bfgs'
  press = 0.0001
  press_conv_thr = 0.0001
/

K_POINTS (automatic)
  2 2 2 1 1 1

ATOMIC_SPECIES
   I  126.90400   I.upf
   H    1.00750   H.upf
   N   14.00650   N.upf
  Pb  207.20000  Pb.upf
   C   12.01060   C.upf

CELL_PARAMETERS {alat}
  1.000000000000000   0.000000000000000   0.000000000000000 
  0.051014799186799   0.998697897396370   0.000000000000000 
  0.000000000000000   0.000000000000000   1.383322029000813 

ATOMIC_POSITIONS {crystal}
Pb   0.500000000000000   0.000000000000000   0.000000000000000 
Pb   0.500000000000000   0.000000000000000   0.500000000000000 
Pb   0.000000000000000   0.500000000000000   0.000000000000000 
Pb   0.000000000000000   0.500000000000000   0.500000000000000 
 I   0.750450000000000   0.250450000000000   0.000000000000000 
 I   0.750450000000000   0.250450000000000   0.500000000000000 
 I   0.249550000000000   0.749550000000000   0.500000000000000 
 I   0.249550000000000   0.749550000000000   0.000000000000000 
 I   0.554534000000000   0.945466000000000   0.750000000000000 
 I   0.445466000000000   0.054534000000000   0.250000000000000 
 I   0.931621000000000   0.568379000000000   0.750000000000000 
 I   0.068379000000000   0.431621000000000   0.250000000000000 
 I   0.250314000000000   0.249686000000000   0.925855000000000 
 I   0.250314000000000   0.249686000000000   0.574145000000000 
 I   0.749686000000000   0.750314000000000   0.425855000000000 
 I   0.749686000000000   0.750314000000000   0.074145000000000 
 N   0.867725000000000   0.052610000000000   0.250000000000000 
 N   0.552610000000000   0.367725000000000   0.750000000000000 
 N   0.132275000000000   0.947390000000000   0.750000000000000 
 N   0.447390000000000   0.632275000000000   0.250000000000000 
 C   0.028990000000000   0.994366000000000   0.250000000000000 
 C   0.494366000000000   0.528990000000000   0.750000000000000 
 C   0.971010000000000   0.005634000000000   0.750000000000000 
 C   0.505634000000000   0.471010000000000   0.250000000000000 
 H   0.158571000000000   0.880733000000000   0.819720000000000 
 H   0.158571000000000   0.880733000000000   0.680280000000000 
 H   0.380733000000000   0.658571000000000   0.319720000000000 
 H   0.380733000000000   0.658571000000000   0.180280000000000 
 H   0.841429000000000   0.119267000000000   0.319720000000000 
 H   0.619267000000000   0.341429000000000   0.680280000000000 
 H   0.841429000000000   0.119267000000000   0.180280000000000 
 H   0.619267000000000   0.341429000000000   0.819720000000000 
 H   0.050124000000000   0.924319000000000   0.324352000000000 
 H   0.050124000000000   0.924319000000000   0.175648000000000 
 H   0.424319000000000   0.550124000000000   0.824352000000000 
 H   0.424319000000000   0.550124000000000   0.675648000000000 
 H   0.949876000000000   0.075681000000000   0.824352000000000 
 H   0.575681000000000   0.449876000000000   0.175648000000000 
 H   0.949876000000000   0.075681000000000   0.675648000000000 
 H   0.575681000000000   0.449876000000000   0.324352000000000 
 H   0.102920000000000   0.092040000000000   0.250000000000000 
 H   0.592040000000000   0.602920000000000   0.750000000000000 
 H   0.897080000000000   0.907960000000000   0.750000000000000 
 H   0.407960000000000   0.397080000000000   0.250000000000000 
 H   0.537403000000000   0.705769000000000   0.250000000000000 
 H   0.205769000000000   0.037403000000000   0.750000000000000 
 H   0.462597000000000   0.294231000000000   0.750000000000000 
 H   0.794231000000000   0.962597000000000   0.250000000000000 
